qbf_easy_train/easy_4422_SAT.qdimacs
p cnf 20 45
a 16 4 7 0
e 1 2 3 5 6 8 9 10 11 12 13 14 15 17 18 19 20 0
-4 -2 0
-4 3 0
2 -3 4 0
1 4 -5 0
-1 -4 -5 0
1 -4 5 0
-1 4 5 0
7 6 0
7 6 0
-6 -7 0
3 -8 -9 0
-3 8 -9 0
3 8 9 0
-3 -8 9 0
10 -7 0
10 -9 0
7 9 -10 0
-11 -5 0
-11 -10 0
5 10 11 0
2 -12 -13 0
-2 12 -13 0
2 12 13 0
-2 -12 13 0
14 3 0
14 -12 0
-3 12 -14 0
-15 -13 0
-15 14 0
13 -14 15 0
16 17 -18 0
-16 -17 -18 0
16 -17 18 0
-16 17 18 0
19 -15 0
19 18 0
15 -18 -19 0
20 -11 0
20 -19 0
11 19 -20 0
8 5 -15 19 12 0
-7 -5 4 2 -13 -12 -20 0
2 3 -11 -8 -6 5 0
1 3 -11 12 0
20 0
