sat_easy_train/easy_4422_SAT.dimacs
p cnf 132 440
-3 1 0
-3 2 0
-1 -2 3 0
6 -4 0
6 5 0
4 -5 -6 0
6 1 -7 0
-6 -1 -7 0
6 -1 7 0
-6 1 7 0
3 7 -8 0
-3 -7 -8 0
3 -7 8 0
-3 7 8 0
11 9 0
11 10 0
-9 -10 -11 0
-13 12 0
-13 -2 0
-12 2 13 0
11 13 -14 0
-11 -13 -14 0
11 -13 14 0
-11 13 14 0
8 14 -15 0
-8 -14 -15 0
8 -14 15 0
-8 14 15 0
-19 -17 0
-19 -18 0
17 18 19 0
16 -19 -20 0
-16 19 -20 0
16 19 20 0
-16 -19 20 0
-21 15 0
-21 -20 0
-15 20 21 0
-22 -1 0
-22 19 0
1 -19 22 0
-23 -22 0
-23 -19 0
22 19 23 0
24 -8 0
24 11 0
8 -11 -24 0
25 -23 0
25 -24 0
23 24 -25 0
-21 25 -26 0
21 -25 -26 0
-21 -25 26 0
21 25 26 0
28 7 0
28 -27 0
-7 27 -28 0
-3 -28 -29 0
3 28 -29 0
-3 28 29 0
3 -28 29 0
30 -8 0
30 -29 0
8 29 -30 0
-31 -4 0
-31 30 0
4 -30 31 0
33 -31 0
33 32 0
31 -32 -33 0
34 19 0
34 19 0
-19 -34 0
-35 18 0
-35 4 0
-18 -4 35 0
-7 35 -36 0
7 -35 -36 0
-7 -35 36 0
7 35 36 0
-37 34 0
-37 36 0
-34 -36 37 0
38 -33 0
38 -37 0
33 37 -38 0
39 35 0
39 23 0
-35 -23 -39 0
40 -9 0
40 34 0
9 -34 -40 0
-41 40 0
-41 -6 0
-40 6 41 0
10 -1 -43 0
-10 1 -43 0
10 1 43 0
-10 -1 43 0
44 -42 0
44 43 0
42 -43 -44 0
45 -41 0
45 -44 0
41 44 -45 0
39 -45 -46 0
-39 45 -46 0
39 45 46 0
-39 -45 46 0
-47 -38 0
-47 -46 0
38 46 47 0
48 17 0
48 -42 0
-17 42 -48 0
-4 48 -49 0
4 -48 -49 0
-4 -48 49 0
4 48 49 0
-50 -18 0
-50 -24 0
18 24 50 0
50 35 -51 0
-50 -35 -51 0
50 -35 51 0
-50 35 51 0
-52 32 0
-52 16 0
-32 -16 52 0
53 -16 0
53 12 0
16 -12 -53 0
-54 -53 0
-54 7 0
53 -7 54 0
-52 -54 -55 0
52 54 -55 0
-52 54 55 0
52 -54 55 0
56 -51 0
56 -55 0
51 55 -56 0
57 -49 0
57 -56 0
49 56 -57 0
58 47 0
58 -57 0
-47 57 -58 0
48 -6 -59 0
-48 6 -59 0
48 6 59 0
-48 -6 59 0
60 54 0
60 23 0
-54 -23 -60 0
61 -14 0
61 60 0
14 -60 -61 0
-59 -61 -62 0
59 61 -62 0
-59 61 62 0
59 -61 62 0
63 58 0
63 -62 0
-58 62 -63 0
-64 52 0
-64 27 0
-52 -27 64 0
7 -36 -65 0
-7 36 -65 0
7 36 65 0
-7 -36 65 0
35 -66 -67 0
-35 66 -67 0
35 66 67 0
-35 -66 67 0
-68 35 0
-68 -67 0
-35 67 68 0
-69 68 0
-69 13 0
-68 -13 69 0
-70 65 0
-70 69 0
-65 -69 70 0
64 70 -71 0
-64 -70 -71 0
64 -70 71 0
-64 70 71 0
-72 63 0
-72 -71 0
-63 71 72 0
-74 13 0
-74 -4 0
-13 4 74 0
75 74 0
75 -10 0
-74 10 -75 0
-76 -73 0
-76 -75 0
73 75 76 0
-77 34 0
-77 -9 0
-34 9 77 0
-42 -77 -78 0
42 77 -78 0
-42 77 78 0
42 -77 78 0
-76 -78 -79 0
76 78 -79 0
-76 78 79 0
76 -78 79 0
22 -35 -80 0
-22 35 -80 0
22 35 80 0
-22 -35 80 0
-81 -36 0
-81 80 0
36 -80 81 0
-82 -73 0
-82 -50 0
73 50 82 0
83 -31 0
83 -27 0
31 27 -83 0
-8 60 -84 0
8 -60 -84 0
-8 -60 84 0
8 60 84 0
-83 84 -85 0
83 -84 -85 0
-83 -84 85 0
83 84 85 0
82 -85 -86 0
-82 85 -86 0
82 85 86 0
-82 -85 86 0
87 81 0
87 -86 0
-81 86 -87 0
88 79 0
88 87 0
-79 -87 -88 0
89 22 0
89 -35 0
-22 35 -89 0
-90 -66 0
-90 89 0
66 -89 90 0
-91 90 0
-91 -89 0
-90 89 91 0
-92 -91 0
-92 -43 0
91 43 92 0
93 88 0
93 92 0
-88 -92 -93 0
-94 19 0
-94 27 0
-19 -27 94 0
95 -94 0
95 36 0
94 -36 -95 0
96 93 0
96 -95 0
-93 95 -96 0
-72 96 -97 0
72 -96 -97 0
-72 -96 97 0
72 96 97 0
-26 97 -98 0
26 -97 -98 0
-26 -97 98 0
26 97 98 0
-99 8 0
-99 4 0
-8 -4 99 0
99 -36 -100 0
-99 36 -100 0
99 36 100 0
-99 -36 100 0
101 8 0
101 42 0
-8 -42 -101 0
102 35 0
102 -52 0
-35 52 -102 0
-103 102 0
-103 67 0
-102 -67 103 0
-104 -40 0
-104 12 0
40 -12 104 0
105 -12 0
105 -104 0
12 104 -105 0
106 103 0
106 105 0
-103 -105 -106 0
107 11 0
107 67 0
-11 -67 -107 0
-9 -32 -108 0
9 32 -108 0
-9 32 108 0
9 -32 108 0
-109 107 0
-109 -108 0
-107 108 109 0
110 -106 0
110 109 0
106 -109 -110 0
111 -101 0
111 -110 0
101 110 -111 0
-4 80 -112 0
4 -80 -112 0
-4 -80 112 0
4 80 112 0
-113 -35 -114 0
113 35 -114 0
-113 35 114 0
113 -35 114 0
-115 112 0
-115 -114 0
-112 114 115 0
-103 7 -116 0
103 -7 -116 0
-103 -7 116 0
103 7 116 0
117 -40 0
117 -116 0
40 116 -117 0
118 -117 0
118 8 0
117 -8 -118 0
-119 -3 0
-119 -17 0
3 17 119 0
-120 22 0
-120 -119 0
-22 119 120 0
-121 -118 0
-121 120 0
118 -120 121 0
-122 -115 0
-122 -121 0
115 121 122 0
123 4 0
123 -8 0
-4 8 -123 0
-124 1 0
-124 -32 0
-1 32 124 0
-123 -124 -125 0
123 124 -125 0
-123 124 125 0
123 -124 125 0
-126 122 0
-126 -125 0
-122 125 126 0
94 42 -127 0
-94 -42 -127 0
94 -42 127 0
-94 42 127 0
128 -80 0
128 127 0
80 -127 -128 0
-126 -128 -129 0
126 128 -129 0
-126 128 129 0
126 -128 129 0
130 111 0
130 -129 0
-111 129 -130 0
-131 -100 0
-131 -130 0
100 130 131 0
132 -98 0
132 131 0
98 -131 -132 0
-30 77 -20 130 38 0
43 94 14 0
33 20 111 -69 0
61 -41 0
82 -84 2 -56 0
23 60 -21 -117 0
-103 74 0
-87 118 -32 -52 57 -94 0
-61 120 37 57 -36 0
73 76 -104 -45 22 0
-51 -104 -55 32 -71 0
129 -41 -90 0
-91 7 -11 49 -115 0
-38 82 -36 -55 0
-60 -49 127 0
-83 103 -100 0
-69 75 71 0
88 84 -109 0
68 -42 94 0
48 -73 0
33 -101 -85 -99 0
-79 18 0
16 -22 30 -116 3 0
73 -30 0
-101 88 -77 -35 -30 73 0
46 52 -84 -88 -122 21 0
-67 -53 -5 -80 -127 0
81 71 72 -16 111 0
11 -111 9 124 0
-64 -66 -34 -126 37 0
-108 -107 56 0
-107 89 92 0
-57 7 76 30 0
-105 94 92 -61 -95 0
103 71 11 -73 111 -91 0
-10 75 124 -23 -40 0
-4 28 -80 -83 -29 42 0
22 66 -101 -3 86 -62 0
-31 -25 -18 -1 -38 -108 0
-12 -98 38 3 39 0
-10 100 31 -72 -17 102 0
44 -8 88 32 -108 0
92 16 0
25 23 -51 0
24 -16 65 43 0
-66 -19 -113 0
-118 -116 47 -105 0
-69 132 0
127 -11 0
-98 -128 0
-73 1 132 -39 0
31 75 -119 -96 0
-113 35 34 127 0
48 -92 -23 51 18 -17 0
125 49 -4 -11 39 54 0
1 -90 -74 0
-73 -52 24 23 0
132 0
